&control
 calculation = 'relax'
 outdir = './data'
 prefix = 'scf'
 pseudo_dir = '/home/EIS00001/gen1127/pseudopotential'
 lfcp = .true.
 etot_conv_thr = 1.0d-5
 forc_conv_thr = 1.0d-4
/
&system
 ibrav = 0
 nat = 67
 ntyp = 3
 ecutwfc =  60.0
 ecutrho = 480.0
 occupations = 'smearing'
 degauss = 0.01
 smearing = 'gauss'
 assume_isolated = 'esm'
 esm_bc = 'bc3'
 nosym = .true.
 input_DFT = 'vdW-DF2-B86R'
/
&electrons
 conv_thr = 1.0d-8
 mixing_beta = 0.3
 electron_maxstep = 300
/
&ions
 upscale = 1.0
/
&fcp
 fcp_mu = -4.1184
/

ATOMIC_SPECIES
Pd -1.0 Pd.pbe-n-rrkjus_psl.1.0.0.UPF
O  -1.0 O.pbe-n-rrkjus_psl.1.0.0.UPF
H  -1.0 H.pbe-rrkjus_psl.1.0.0.UPF

K_POINTS {automatic}
3 3 1 0 0 0

CELL_PARAMETERS (angstrom)
  11.090404510   0.000000000   0.000000000
   5.545201620   9.604572410   0.000000000
   0.000000000   0.000000000  22.791458130

ATOMIC_POSITIONS (angstrom)
Pd       0.000000000   0.000000000  -3.395729065    0   0   0
Pd       1.386300404   2.401143103  -3.395729065    0   0   0
Pd       2.772600808   4.802286207  -3.395729065    0   0   0
Pd       4.158901212   7.203429310  -3.395729065    0   0   0
Pd       2.772601128   0.000000000  -3.395729065    0   0   0
Pd       4.158901532   2.401143103  -3.395729065    0   0   0
Pd       5.545201936   4.802286207  -3.395729065    0   0   0
Pd       6.931502339   7.203429310  -3.395729065    0   0   0
Pd       5.545202255   0.000000000  -3.395729065    0   0   0
Pd       6.931502659   2.401143103  -3.395729065    0   0   0
Pd       8.317803063   4.802286207  -3.395729065    0   0   0
Pd       9.704103467   7.203429310  -3.395729065    0   0   0
Pd       8.317803383   0.000000000  -3.395729065    0   0   0
Pd       9.704103787   2.401143103  -3.395729065    0   0   0
Pd      11.090404191   4.802286207  -3.395729065    0   0   0
Pd      12.476704595   7.203429310  -3.395729065    0   0   0
Pd       1.386300552   0.800381058  -1.131909044    0   0   0
Pd       2.772600997   3.201524233  -1.131909044    0   0   0
Pd       4.158901236   5.602667050  -1.131909044    0   0   0
Pd       5.545201640   8.003810154  -1.131909044    0   0   0
Pd       4.158901762   0.800381058  -1.131909044    0   0   0
Pd       5.545202207   3.201524233  -1.131909044    0   0   0
Pd       6.931502446   5.602667050  -1.131909044    0   0   0
Pd       8.317802850   8.003810154  -1.131909044    0   0   0
Pd       6.931502559   0.800381058  -1.131909044    0   0   0
Pd       8.317803004   3.201524233  -1.131909044    0   0   0
Pd       9.704103243   5.602667050  -1.131909044    0   0   0
Pd      11.090403647   8.003810154  -1.131909044    0   0   0
Pd       9.704103687   0.800381058  -1.131909044    0   0   0
Pd      11.090404132   3.201524233  -1.131909044    0   0   0
Pd      12.476704371   5.602667050  -1.131909044    0   0   0
Pd      13.863004775   8.003810154  -1.131909044    0   0   0
Pd       2.772334370   1.601829077   1.115320134
Pd       4.156465620   4.001800917   1.117099958
Pd       5.542339132   6.401101484   1.116290976
Pd       6.924925656   8.806145356   1.125557334
Pd       5.543007147   1.599663518   1.116858910
Pd       6.930312737   4.002370155   1.116591668
Pd       8.317408370   6.403184655   1.113690024
Pd       9.702675436   8.801702541   1.112961409
Pd       8.314142218   1.600992278   1.116848410
Pd       9.703023390   4.000821590   1.115037747
Pd      11.088280552   6.402414904   1.118243600
Pd      12.476200524   8.803255680   1.114889299
Pd      11.088069839   1.593569690   1.128609947
Pd      12.473182822   4.002519762   1.113211318
Pd      13.861029308   6.404211790   1.114871639
Pd      15.255047399   8.808747401   1.132669100
Pd       1.388729023   2.410978794   3.380779674
Pd       2.766813125   4.799391838   3.386584672
Pd       4.146282590   7.188785502   3.383403804
Pd      -0.016336307  -0.002786774   3.430323648
Pd       4.155014272   2.400894715   3.388510003
Pd       5.540395488   4.799342952   3.387307988
Pd       6.932952209   7.191025795   3.380331905
Pd       2.781333166  -0.000522373   3.376501787
Pd       6.923802963   2.402218889   3.385698669
Pd       8.313223879   4.803060104   3.387509526
Pd       9.699242048   7.201832502   3.388753619
Pd       5.538157135  -0.001424971   3.386799331
Pd       9.692916261   2.411975366   3.382285288
Pd      11.086048021   4.802007194   3.387565174
Pd      12.468697659   7.200236904   3.386380285
Pd       8.296269290  -0.001579439   3.383693352
O        0.278897614  -0.001520416   5.786990062
H        0.874024616   0.780128609   5.803820153
H        0.885050446  -0.774765483   5.801945373
