&CONTROL
   calculation      = 'scf'
   outdir           = './data'
   prefix           = 'scf'
   etot_conv_thr    = 1e-05
   forc_conv_thr    = 0.0001
   pseudo_dir       = '/home/EIS00001/gen1127/pseudopotential'
   lfcp             = .false.
/
&SYSTEM
   ibrav            = 0
   nat              = 67
   ntyp             = 3
   tot_charge       = -1.108377
   ecutwfc          = 60.0
   ecutrho          = 480.0
   nosym            = .true.
   occupations      = 'smearing'
   degauss          = 0.01
   smearing         = 'gauss'
   input_dft        = 'vdW-DF2-B86R'
   assume_isolated  = 'esm'
   esm_bc           = 'bc3'
/
&ELECTRONS
   electron_maxstep = 300
   conv_thr         = 1e-08
   mixing_beta      = 0.3
/
&IONS
   upscale          = 1.0
/
&CELL
/
&FCP
   fcp_mu           = -4.1184
/
&RISM
/
ATOMIC_SPECIES
Pd -1.0 Pd.pbe-n-rrkjus_psl.1.0.0.UPF
O  -1.0 O.pbe-n-rrkjus_psl.1.0.0.UPF
H  -1.0 H.pbe-rrkjus_psl.1.0.0.UPF
K_POINTS {automatic}
3 3 1 0 0 0
CELL_PARAMETERS (angstrom)
11.090404510   0.000000000   0.000000000
5.545201620   9.604572410   0.000000000
0.000000000   0.000000000  22.791458130
ATOMIC_POSITIONS (angstrom)
Pd       0.000000000   0.000000000  -3.395729065    0   0   0
Pd       1.386300404   2.401143103  -3.395729065    0   0   0
Pd       2.772600808   4.802286207  -3.395729065    0   0   0
Pd       4.158901212   7.203429310  -3.395729065    0   0   0
Pd       2.772601128   0.000000000  -3.395729065    0   0   0
Pd       4.158901532   2.401143103  -3.395729065    0   0   0
Pd       5.545201936   4.802286207  -3.395729065    0   0   0
Pd       6.931502339   7.203429310  -3.395729065    0   0   0
Pd       5.545202255   0.000000000  -3.395729065    0   0   0
Pd       6.931502659   2.401143103  -3.395729065    0   0   0
Pd       8.317803063   4.802286207  -3.395729065    0   0   0
Pd       9.704103467   7.203429310  -3.395729065    0   0   0
Pd       8.317803383   0.000000000  -3.395729065    0   0   0
Pd       9.704103787   2.401143103  -3.395729065    0   0   0
Pd      11.090404191   4.802286207  -3.395729065    0   0   0
Pd      12.476704595   7.203429310  -3.395729065    0   0   0
Pd       1.386300552   0.800381058  -1.131909044    0   0   0
Pd       2.772600997   3.201524233  -1.131909044    0   0   0
Pd       4.158901236   5.602667050  -1.131909044    0   0   0
Pd       5.545201640   8.003810154  -1.131909044    0   0   0
Pd       4.158901762   0.800381058  -1.131909044    0   0   0
Pd       5.545202207   3.201524233  -1.131909044    0   0   0
Pd       6.931502446   5.602667050  -1.131909044    0   0   0
Pd       8.317802850   8.003810154  -1.131909044    0   0   0
Pd       6.931502559   0.800381058  -1.131909044    0   0   0
Pd       8.317803004   3.201524233  -1.131909044    0   0   0
Pd       9.704103243   5.602667050  -1.131909044    0   0   0
Pd      11.090403647   8.003810154  -1.131909044    0   0   0
Pd       9.704103687   0.800381058  -1.131909044    0   0   0
Pd      11.090404132   3.201524233  -1.131909044    0   0   0
Pd      12.476704371   5.602667050  -1.131909044    0   0   0
Pd      13.863004775   8.003810154  -1.131909044    0   0   0
Pd       2.772108204   1.601714042   1.114999324
Pd       4.156413576   4.001746971   1.117541081
Pd       5.542295236   6.401184891   1.116056459
Pd       6.924973977   8.806061919   1.125801945
Pd       5.542958313   1.599717346   1.117267209
Pd       6.930109887   4.002281980   1.117022113
Pd       8.317400173   6.403030004   1.113687467
Pd       9.702781699   8.801726165   1.113040972
Pd       8.314141991   1.600972033   1.116705348
Pd       9.702926087   4.000852463   1.115070522
Pd      11.088112511   6.402417778   1.118618614
Pd      12.476063661   8.803198554   1.115056023
Pd      11.087944399   1.593654719   1.129024823
Pd      12.473208997   4.002690459   1.113244673
Pd      13.860875176   6.404112526   1.114981590
Pd      15.254967603   8.808804411   1.133417156
Pd       1.388813139   2.411041859   3.380371436
Pd       2.766748475   4.799342566   3.386630447
Pd       4.146254485   7.188555816   3.383290254
Pd      -0.016433070  -0.002860058   3.430214119
Pd       4.154787449   2.400729283   3.388898609
Pd       5.540419841   4.799599551   3.387828004
Pd       6.932898618   7.190816268   3.379960475
Pd       2.781464093  -0.000480636   3.376049304
Pd       6.924028226   2.402078162   3.386387075
Pd       8.313160163   4.803103287   3.387410184
Pd       9.699106976   7.201894790   3.389109716
Pd       5.537986103  -0.001479358   3.386709210
Pd       9.692765149   2.412016876   3.382227110
Pd      11.086096535   4.801888063   3.388068260
Pd      12.468764451   7.200222691   3.387011084
Pd       8.296076247  -0.001517651   3.383711982
O        0.278697777  -0.001511691   5.784189105
H        0.873548669   0.780251207   5.805391419
H        0.884765886  -0.774737966   5.803491452
