&CONTROL
   calculation      = 'scf'
   tprnfor          = .true.
   outdir           = 'data'
   prefix           = 'water'
   pseudo_dir       = '/Users/genmasahiko/Program/pp'
/
&SYSTEM
   ibrav            = 0
   ecutwfc          = 40.0
   ecutrho          = 320.0
   ntyp             = 2
   nat              = 3
/
&ELECTRONS
/
&IONS
/
&CELL
/

ATOMIC_SPECIES
H 1.008 H.pbe-rrkjus_psl.1.0.0.UPF
O 15.999 O.pbe-n-rrkjus_psl.1.0.0.UPF

K_POINTS automatic
1 1 1  0 0 0

CELL_PARAMETERS angstrom
10.00000000000000 0.00000000000000 0.00000000000000
0.00000000000000 10.00000000000000 0.00000000000000
0.00000000000000 0.00000000000000 10.00000000000000

ATOMIC_POSITIONS angstrom
H 0.7680122628 0.5893398150 0.0000000000 
H -0.7680122628 0.5893398150 0.0000000000 
O 0.0000000000 -0.0066796299 0.0100000000 

